WARNING: for repeatability, setting FPU to use double precision
============================[ Problem Statistics ]=============================
|                                                                             |
|  Number of variables:            50                                         |
|  Number of clauses:             218                                         |
|  Parse time:                   0.00 s                                       |
|                                                                             |
============================[ Search Statistics ]==============================
| Conflicts |          ORIGINAL         |          LEARNT          | Progress |
|           |    Vars  Clauses Literals |    Limit  Clauses Lit/Cl |          |
===============================================================================
===============================================================================
restarts              : 1
conflicts             : 72             (47777 /sec)
decisions             : 87             (0.00 % random) (57731 /sec)
propagations          : 1023           (678832 /sec)
conflict literals     : 289            (22.73 % deleted)
Memory used           : 20.00 MB
CPU time              : 0.001507 s

SATISFIABLE
